p edge 70 1855
n 1 2
n 2 3
n 3 4
n 4 5
n 5 6
n 6 7
n 7 8
n 8 9
n 9 10
n 10 11
n 11 12
n 12 13
n 13 14
n 14 15
n 15 16
n 16 17
n 17 18
n 18 19
n 19 20
n 20 21
n 21 22
n 22 23
n 23 24
n 24 25
n 25 26
n 26 27
n 27 28
n 28 29
n 29 30
n 30 31
n 31 32
n 32 33
n 33 34
n 34 35
n 35 36
n 36 37
n 37 38
n 38 39
n 39 40
n 40 41
n 41 42
n 42 43
n 43 44
n 44 45
n 45 46
n 46 47
n 47 48
n 48 49
n 49 50
n 50 51
n 51 52
n 52 53
n 53 54
n 54 55
n 55 56
n 56 57
n 57 58
n 58 59
n 59 60
n 60 61
n 61 62
n 62 63
n 63 64
n 64 65
n 65 66
n 66 67
n 67 68
n 68 69
n 69 70
n 70 71
e 1 10
e 1 11
e 1 12
e 1 13
e 1 14
e 1 15
e 1 20
e 1 21
e 1 22
e 1 23
e 1 24
e 1 25
e 1 26
e 1 27
e 1 28
e 1 29
e 1 30
e 1 31
e 1 32
e 1 33
e 1 34
e 1 35
e 1 40
e 1 41
e 1 42
e 1 43
e 1 44
e 1 45
e 1 46
e 1 47
e 1 48
e 1 49
e 1 50
e 1 51
e 1 52
e 1 53
e 1 54
e 1 55
e 1 56
e 1 57
e 1 58
e 1 59
e 1 60
e 1 61
e 1 62
e 1 63
e 1 64
e 1 65
e 1 66
e 1 67
e 1 68
e 1 69
e 1 70
e 2 7
e 2 8
e 2 9
e 2 13
e 2 14
e 2 15
e 2 17
e 2 18
e 2 19
e 2 23
e 2 24
e 2 25
e 2 26
e 2 27
e 2 28
e 2 29
e 2 30
e 2 31
e 2 32
e 2 33
e 2 34
e 2 35
e 2 37
e 2 38
e 2 39
e 2 43
e 2 44
e 2 45
e 2 46
e 2 47
e 2 48
e 2 49
e 2 50
e 2 51
e 2 52
e 2 53
e 2 54
e 2 55
e 2 56
e 2 57
e 2 58
e 2 59
e 2 60
e 2 61
e 2 62
e 2 63
e 2 64
e 2 65
e 2 66
e 2 67
e 2 68
e 2 69
e 2 70
e 3 6
e 3 8
e 3 9
e 3 11
e 3 12
e 3 15
e 3 16
e 3 18
e 3 19
e 3 21
e 3 22
e 3 25
e 3 26
e 3 27
e 3 28
e 3 29
e 3 30
e 3 31
e 3 32
e 3 33
e 3 34
e 3 35
e 3 36
e 3 38
e 3 39
e 3 41
e 3 42
e 3 45
e 3 46
e 3 47
e 3 48
e 3 49
e 3 50
e 3 51
e 3 52
e 3 53
e 3 54
e 3 55
e 3 56
e 3 57
e 3 58
e 3 59
e 3 60
e 3 61
e 3 62
e 3 63
e 3 64
e 3 65
e 3 66
e 3 67
e 3 68
e 3 69
e 3 70
e 4 6
e 4 7
e 4 9
e 4 10
e 4 12
e 4 14
e 4 16
e 4 17
e 4 19
e 4 20
e 4 22
e 4 24
e 4 26
e 4 27
e 4 28
e 4 29
e 4 30
e 4 31
e 4 32
e 4 33
e 4 34
e 4 35
e 4 36
e 4 37
e 4 39
e 4 40
e 4 42
e 4 44
e 4 46
e 4 47
e 4 48
e 4 49
e 4 50
e 4 51
e 4 52
e 4 53
e 4 54
e 4 55
e 4 56
e 4 57
e 4 58
e 4 59
e 4 60
e 4 61
e 4 62
e 4 63
e 4 64
e 4 65
e 4 66
e 4 67
e 4 68
e 4 69
e 4 70
e 5 6
e 5 7
e 5 8
e 5 10
e 5 11
e 5 13
e 5 16
e 5 17
e 5 18
e 5 20
e 5 21
e 5 23
e 5 26
e 5 27
e 5 28
e 5 29
e 5 30
e 5 31
e 5 32
e 5 33
e 5 34
e 5 35
e 5 36
e 5 37
e 5 38
e 5 40
e 5 41
e 5 43
e 5 46
e 5 47
e 5 48
e 5 49
e 5 50
e 5 51
e 5 52
e 5 53
e 5 54
e 5 55
e 5 56
e 5 57
e 5 58
e 5 59
e 5 60
e 5 61
e 5 62
e 5 63
e 5 64
e 5 65
e 5 66
e 5 67
e 5 68
e 5 69
e 5 70
e 6 13
e 6 14
e 6 15
e 6 17
e 6 18
e 6 19
e 6 20
e 6 21
e 6 22
e 6 23
e 6 24
e 6 25
e 6 29
e 6 30
e 6 31
e 6 32
e 6 33
e 6 34
e 6 35
e 6 37
e 6 38
e 6 39
e 6 40
e 6 41
e 6 42
e 6 43
e 6 44
e 6 45
e 6 49
e 6 50
e 6 51
e 6 52
e 6 53
e 6 54
e 6 55
e 6 56
e 6 57
e 6 58
e 6 59
e 6 60
e 6 61
e 6 62
e 6 63
e 6 64
e 6 65
e 6 66
e 6 67
e 6 68
e 6 69
e 6 70
e 7 11
e 7 12
e 7 15
e 7 16
e 7 18
e 7 19
e 7 20
e 7 21
e 7 22
e 7 23
e 7 24
e 7 25
e 7 27
e 7 28
e 7 31
e 7 32
e 7 33
e 7 34
e 7 35
e 7 36
e 7 38
e 7 39
e 7 40
e 7 41
e 7 42
e 7 43
e 7 44
e 7 45
e 7 47
e 7 48
e 7 51
e 7 52
e 7 53
e 7 54
e 7 55
e 7 56
e 7 57
e 7 58
e 7 59
e 7 60
e 7 61
e 7 62
e 7 63
e 7 64
e 7 65
e 7 66
e 7 67
e 7 68
e 7 69
e 7 70
e 8 10
e 8 12
e 8 14
e 8 16
e 8 17
e 8 19
e 8 20
e 8 21
e 8 22
e 8 23
e 8 24
e 8 25
e 8 26
e 8 28
e 8 30
e 8 32
e 8 33
e 8 34
e 8 35
e 8 36
e 8 37
e 8 39
e 8 40
e 8 41
e 8 42
e 8 43
e 8 44
e 8 45
e 8 46
e 8 48
e 8 50
e 8 52
e 8 53
e 8 54
e 8 55
e 8 56
e 8 57
e 8 58
e 8 59
e 8 60
e 8 61
e 8 62
e 8 63
e 8 64
e 8 65
e 8 66
e 8 67
e 8 68
e 8 69
e 8 70
e 9 10
e 9 11
e 9 13
e 9 16
e 9 17
e 9 18
e 9 20
e 9 21
e 9 22
e 9 23
e 9 24
e 9 25
e 9 26
e 9 27
e 9 29
e 9 32
e 9 33
e 9 34
e 9 35
e 9 36
e 9 37
e 9 38
e 9 40
e 9 41
e 9 42
e 9 43
e 9 44
e 9 45
e 9 46
e 9 47
e 9 49
e 9 52
e 9 53
e 9 54
e 9 55
e 9 56
e 9 57
e 9 58
e 9 59
e 9 60
e 9 61
e 9 62
e 9 63
e 9 64
e 9 65
e 9 66
e 9 67
e 9 68
e 9 69
e 9 70
e 10 15
e 10 16
e 10 17
e 10 18
e 10 19
e 10 21
e 10 22
e 10 23
e 10 24
e 10 25
e 10 27
e 10 28
e 10 29
e 10 30
e 10 31
e 10 34
e 10 35
e 10 36
e 10 37
e 10 38
e 10 39
e 10 41
e 10 42
e 10 43
e 10 44
e 10 45
e 10 47
e 10 48
e 10 49
e 10 50
e 10 51
e 10 54
e 10 55
e 10 56
e 10 57
e 10 58
e 10 59
e 10 60
e 10 61
e 10 62
e 10 63
e 10 64
e 10 65
e 10 66
e 10 67
e 10 68
e 10 69
e 10 70
e 11 14
e 11 16
e 11 17
e 11 18
e 11 19
e 11 20
e 11 22
e 11 23
e 11 24
e 11 25
e 11 26
e 11 28
e 11 29
e 11 30
e 11 31
e 11 33
e 11 35
e 11 36
e 11 37
e 11 38
e 11 39
e 11 40
e 11 42
e 11 43
e 11 44
e 11 45
e 11 46
e 11 48
e 11 49
e 11 50
e 11 51
e 11 53
e 11 55
e 11 56
e 11 57
e 11 58
e 11 59
e 11 60
e 11 61
e 11 62
e 11 63
e 11 64
e 11 65
e 11 66
e 11 67
e 11 68
e 11 69
e 11 70
e 12 13
e 12 16
e 12 17
e 12 18
e 12 19
e 12 20
e 12 21
e 12 23
e 12 24
e 12 25
e 12 26
e 12 27
e 12 29
e 12 30
e 12 31
e 12 32
e 12 35
e 12 36
e 12 37
e 12 38
e 12 39
e 12 40
e 12 41
e 12 43
e 12 44
e 12 45
e 12 46
e 12 47
e 12 49
e 12 50
e 12 51
e 12 52
e 12 55
e 12 56
e 12 57
e 12 58
e 12 59
e 12 60
e 12 61
e 12 62
e 12 63
e 12 64
e 12 65
e 12 66
e 12 67
e 12 68
e 12 69
e 12 70
e 13 16
e 13 17
e 13 18
e 13 19
e 13 20
e 13 21
e 13 22
e 13 24
e 13 25
e 13 26
e 13 27
e 13 28
e 13 30
e 13 31
e 13 33
e 13 34
e 13 36
e 13 37
e 13 38
e 13 39
e 13 40
e 13 41
e 13 42
e 13 44
e 13 45
e 13 46
e 13 47
e 13 48
e 13 50
e 13 51
e 13 53
e 13 54
e 13 56
e 13 57
e 13 58
e 13 59
e 13 60
e 13 61
e 13 62
e 13 63
e 13 64
e 13 65
e 13 66
e 13 67
e 13 68
e 13 69
e 13 70
e 14 16
e 14 17
e 14 18
e 14 19
e 14 20
e 14 21
e 14 22
e 14 23
e 14 25
e 14 26
e 14 27
e 14 28
e 14 29
e 14 31
e 14 32
e 14 34
e 14 36
e 14 37
e 14 38
e 14 39
e 14 40
e 14 41
e 14 42
e 14 43
e 14 45
e 14 46
e 14 47
e 14 48
e 14 49
e 14 51
e 14 52
e 14 54
e 14 56
e 14 57
e 14 58
e 14 59
e 14 60
e 14 61
e 14 62
e 14 63
e 14 64
e 14 65
e 14 66
e 14 67
e 14 68
e 14 69
e 14 70
e 15 16
e 15 17
e 15 18
e 15 19
e 15 20
e 15 21
e 15 22
e 15 23
e 15 24
e 15 26
e 15 27
e 15 28
e 15 29
e 15 30
e 15 32
e 15 33
e 15 36
e 15 37
e 15 38
e 15 39
e 15 40
e 15 41
e 15 42
e 15 43
e 15 44
e 15 46
e 15 47
e 15 48
e 15 49
e 15 50
e 15 52
e 15 53
e 15 56
e 15 57
e 15 58
e 15 59
e 15 60
e 15 61
e 15 62
e 15 63
e 15 64
e 15 65
e 15 66
e 15 67
e 15 68
e 15 69
e 15 70
e 16 23
e 16 24
e 16 25
e 16 29
e 16 30
e 16 31
e 16 32
e 16 33
e 16 34
e 16 35
e 16 37
e 16 38
e 16 39
e 16 40
e 16 41
e 16 42
e 16 43
e 16 44
e 16 45
e 16 46
e 16 47
e 16 48
e 16 49
e 16 50
e 16 51
e 16 52
e 16 53
e 16 54
e 16 55
e 16 59
e 16 60
e 16 61
e 16 62
e 16 63
e 16 64
e 16 65
e 16 66
e 16 67
e 16 68
e 16 69
e 16 70
e 17 21
e 17 22
e 17 25
e 17 27
e 17 28
e 17 31
e 17 32
e 17 33
e 17 34
e 17 35
e 17 36
e 17 38
e 17 39
e 17 40
e 17 41
e 17 42
e 17 43
e 17 44
e 17 45
e 17 46
e 17 47
e 17 48
e 17 49
e 17 50
e 17 51
e 17 52
e 17 53
e 17 54
e 17 55
e 17 57
e 17 58
e 17 61
e 17 62
e 17 63
e 17 64
e 17 65
e 17 66
e 17 67
e 17 68
e 17 69
e 17 70
e 18 20
e 18 22
e 18 24
e 18 26
e 18 28
e 18 30
e 18 32
e 18 33
e 18 34
e 18 35
e 18 36
e 18 37
e 18 39
e 18 40
e 18 41
e 18 42
e 18 43
e 18 44
e 18 45
e 18 46
e 18 47
e 18 48
e 18 49
e 18 50
e 18 51
e 18 52
e 18 53
e 18 54
e 18 55
e 18 56
e 18 58
e 18 60
e 18 62
e 18 63
e 18 64
e 18 65
e 18 66
e 18 67
e 18 68
e 18 69
e 18 70
e 19 20
e 19 21
e 19 23
e 19 26
e 19 27
e 19 29
e 19 32
e 19 33
e 19 34
e 19 35
e 19 36
e 19 37
e 19 38
e 19 40
e 19 41
e 19 42
e 19 43
e 19 44
e 19 45
e 19 46
e 19 47
e 19 48
e 19 49
e 19 50
e 19 51
e 19 52
e 19 53
e 19 54
e 19 55
e 19 56
e 19 57
e 19 59
e 19 62
e 19 63
e 19 64
e 19 65
e 19 66
e 19 67
e 19 68
e 19 69
e 19 70
e 20 25
e 20 27
e 20 28
e 20 29
e 20 30
e 20 31
e 20 34
e 20 35
e 20 36
e 20 37
e 20 38
e 20 39
e 20 41
e 20 42
e 20 43
e 20 44
e 20 45
e 20 46
e 20 47
e 20 48
e 20 49
e 20 50
e 20 51
e 20 52
e 20 53
e 20 54
e 20 55
e 20 57
e 20 58
e 20 59
e 20 60
e 20 61
e 20 64
e 20 65
e 20 66
e 20 67
e 20 68
e 20 69
e 20 70
e 21 24
e 21 26
e 21 28
e 21 29
e 21 30
e 21 31
e 21 33
e 21 35
e 21 36
e 21 37
e 21 38
e 21 39
e 21 40
e 21 42
e 21 43
e 21 44
e 21 45
e 21 46
e 21 47
e 21 48
e 21 49
e 21 50
e 21 51
e 21 52
e 21 53
e 21 54
e 21 55
e 21 56
e 21 58
e 21 59
e 21 60
e 21 61
e 21 63
e 21 65
e 21 66
e 21 67
e 21 68
e 21 69
e 21 70
e 22 23
e 22 26
e 22 27
e 22 29
e 22 30
e 22 31
e 22 32
e 22 35
e 22 36
e 22 37
e 22 38
e 22 39
e 22 40
e 22 41
e 22 43
e 22 44
e 22 45
e 22 46
e 22 47
e 22 48
e 22 49
e 22 50
e 22 51
e 22 52
e 22 53
e 22 54
e 22 55
e 22 56
e 22 57
e 22 59
e 22 60
e 22 61
e 22 62
e 22 65
e 22 66
e 22 67
e 22 68
e 22 69
e 22 70
e 23 26
e 23 27
e 23 28
e 23 30
e 23 31
e 23 33
e 23 34
e 23 36
e 23 37
e 23 38
e 23 39
e 23 40
e 23 41
e 23 42
e 23 44
e 23 45
e 23 46
e 23 47
e 23 48
e 23 49
e 23 50
e 23 51
e 23 52
e 23 53
e 23 54
e 23 55
e 23 56
e 23 57
e 23 58
e 23 60
e 23 61
e 23 63
e 23 64
e 23 66
e 23 67
e 23 68
e 23 69
e 23 70
e 24 26
e 24 27
e 24 28
e 24 29
e 24 31
e 24 32
e 24 34
e 24 36
e 24 37
e 24 38
e 24 39
e 24 40
e 24 41
e 24 42
e 24 43
e 24 45
e 24 46
e 24 47
e 24 48
e 24 49
e 24 50
e 24 51
e 24 52
e 24 53
e 24 54
e 24 55
e 24 56
e 24 57
e 24 58
e 24 59
e 24 61
e 24 62
e 24 64
e 24 66
e 24 67
e 24 68
e 24 69
e 24 70
e 25 26
e 25 27
e 25 28
e 25 29
e 25 30
e 25 32
e 25 33
e 25 36
e 25 37
e 25 38
e 25 39
e 25 40
e 25 41
e 25 42
e 25 43
e 25 44
e 25 46
e 25 47
e 25 48
e 25 49
e 25 50
e 25 51
e 25 52
e 25 53
e 25 54
e 25 55
e 25 56
e 25 57
e 25 58
e 25 59
e 25 60
e 25 62
e 25 63
e 25 66
e 25 67
e 25 68
e 25 69
e 25 70
e 26 31
e 26 34
e 26 35
e 26 36
e 26 37
e 26 38
e 26 39
e 26 40
e 26 41
e 26 42
e 26 43
e 26 44
e 26 45
e 26 47
e 26 48
e 26 49
e 26 50
e 26 51
e 26 52
e 26 53
e 26 54
e 26 55
e 26 57
e 26 58
e 26 59
e 26 60
e 26 61
e 26 62
e 26 63
e 26 64
e 26 65
e 26 68
e 26 69
e 26 70
e 27 30
e 27 33
e 27 35
e 27 36
e 27 37
e 27 38
e 27 39
e 27 40
e 27 41
e 27 42
e 27 43
e 27 44
e 27 45
e 27 46
e 27 48
e 27 49
e 27 50
e 27 51
e 27 52
e 27 53
e 27 54
e 27 55
e 27 56
e 27 58
e 27 59
e 27 60
e 27 61
e 27 62
e 27 63
e 27 64
e 27 65
e 27 67
e 27 69
e 27 70
e 28 29
e 28 32
e 28 35
e 28 36
e 28 37
e 28 38
e 28 39
e 28 40
e 28 41
e 28 42
e 28 43
e 28 44
e 28 45
e 28 46
e 28 47
e 28 49
e 28 50
e 28 51
e 28 52
e 28 53
e 28 54
e 28 55
e 28 56
e 28 57
e 28 59
e 28 60
e 28 61
e 28 62
e 28 63
e 28 64
e 28 65
e 28 66
e 28 69
e 28 70
e 29 33
e 29 34
e 29 36
e 29 37
e 29 38
e 29 39
e 29 40
e 29 41
e 29 42
e 29 43
e 29 44
e 29 45
e 29 46
e 29 47
e 29 48
e 29 50
e 29 51
e 29 52
e 29 53
e 29 54
e 29 55
e 29 56
e 29 57
e 29 58
e 29 60
e 29 61
e 29 62
e 29 63
e 29 64
e 29 65
e 29 67
e 29 68
e 29 70
e 30 32
e 30 34
e 30 36
e 30 37
e 30 38
e 30 39
e 30 40
e 30 41
e 30 42
e 30 43
e 30 44
e 30 45
e 30 46
e 30 47
e 30 48
e 30 49
e 30 51
e 30 52
e 30 53
e 30 54
e 30 55
e 30 56
e 30 57
e 30 58
e 30 59
e 30 61
e 30 62
e 30 63
e 30 64
e 30 65
e 30 66
e 30 68
e 30 70
e 31 32
e 31 33
e 31 36
e 31 37
e 31 38
e 31 39
e 31 40
e 31 41
e 31 42
e 31 43
e 31 44
e 31 45
e 31 46
e 31 47
e 31 48
e 31 49
e 31 50
e 31 52
e 31 53
e 31 54
e 31 55
e 31 56
e 31 57
e 31 58
e 31 59
e 31 60
e 31 62
e 31 63
e 31 64
e 31 65
e 31 66
e 31 67
e 31 70
e 32 36
e 32 37
e 32 38
e 32 39
e 32 40
e 32 41
e 32 42
e 32 43
e 32 44
e 32 45
e 32 46
e 32 47
e 32 48
e 32 49
e 32 50
e 32 51
e 32 53
e 32 54
e 32 55
e 32 56
e 32 57
e 32 58
e 32 59
e 32 60
e 32 61
e 32 63
e 32 64
e 32 65
e 32 67
e 32 68
e 32 69
e 33 36
e 33 37
e 33 38
e 33 39
e 33 40
e 33 41
e 33 42
e 33 43
e 33 44
e 33 45
e 33 46
e 33 47
e 33 48
e 33 49
e 33 50
e 33 51
e 33 52
e 33 54
e 33 55
e 33 56
e 33 57
e 33 58
e 33 59
e 33 60
e 33 61
e 33 62
e 33 64
e 33 65
e 33 66
e 33 68
e 33 69
e 34 36
e 34 37
e 34 38
e 34 39
e 34 40
e 34 41
e 34 42
e 34 43
e 34 44
e 34 45
e 34 46
e 34 47
e 34 48
e 34 49
e 34 50
e 34 51
e 34 52
e 34 53
e 34 55
e 34 56
e 34 57
e 34 58
e 34 59
e 34 60
e 34 61
e 34 62
e 34 63
e 34 65
e 34 66
e 34 67
e 34 69
e 35 36
e 35 37
e 35 38
e 35 39
e 35 40
e 35 41
e 35 42
e 35 43
e 35 44
e 35 45
e 35 46
e 35 47
e 35 48
e 35 49
e 35 50
e 35 51
e 35 52
e 35 53
e 35 54
e 35 56
e 35 57
e 35 58
e 35 59
e 35 60
e 35 61
e 35 62
e 35 63
e 35 64
e 35 66
e 35 67
e 35 68
e 36 43
e 36 44
e 36 45
e 36 49
e 36 50
e 36 51
e 36 52
e 36 53
e 36 54
e 36 55
e 36 59
e 36 60
e 36 61
e 36 62
e 36 63
e 36 64
e 36 65
e 36 66
e 36 67
e 36 68
e 36 69
e 36 70
e 37 41
e 37 42
e 37 45
e 37 47
e 37 48
e 37 51
e 37 52
e 37 53
e 37 54
e 37 55
e 37 57
e 37 58
e 37 61
e 37 62
e 37 63
e 37 64
e 37 65
e 37 66
e 37 67
e 37 68
e 37 69
e 37 70
e 38 40
e 38 42
e 38 44
e 38 46
e 38 48
e 38 50
e 38 52
e 38 53
e 38 54
e 38 55
e 38 56
e 38 58
e 38 60
e 38 62
e 38 63
e 38 64
e 38 65
e 38 66
e 38 67
e 38 68
e 38 69
e 38 70
e 39 40
e 39 41
e 39 43
e 39 46
e 39 47
e 39 49
e 39 52
e 39 53
e 39 54
e 39 55
e 39 56
e 39 57
e 39 59
e 39 62
e 39 63
e 39 64
e 39 65
e 39 66
e 39 67
e 39 68
e 39 69
e 39 70
e 40 45
e 40 47
e 40 48
e 40 49
e 40 50
e 40 51
e 40 54
e 40 55
e 40 57
e 40 58
e 40 59
e 40 60
e 40 61
e 40 64
e 40 65
e 40 66
e 40 67
e 40 68
e 40 69
e 40 70
e 41 44
e 41 46
e 41 48
e 41 49
e 41 50
e 41 51
e 41 53
e 41 55
e 41 56
e 41 58
e 41 59
e 41 60
e 41 61
e 41 63
e 41 65
e 41 66
e 41 67
e 41 68
e 41 69
e 41 70
e 42 43
e 42 46
e 42 47
e 42 49
e 42 50
e 42 51
e 42 52
e 42 55
e 42 56
e 42 57
e 42 59
e 42 60
e 42 61
e 42 62
e 42 65
e 42 66
e 42 67
e 42 68
e 42 69
e 42 70
e 43 46
e 43 47
e 43 48
e 43 50
e 43 51
e 43 53
e 43 54
e 43 56
e 43 57
e 43 58
e 43 60
e 43 61
e 43 63
e 43 64
e 43 66
e 43 67
e 43 68
e 43 69
e 43 70
e 44 46
e 44 47
e 44 48
e 44 49
e 44 51
e 44 52
e 44 54
e 44 56
e 44 57
e 44 58
e 44 59
e 44 61
e 44 62
e 44 64
e 44 66
e 44 67
e 44 68
e 44 69
e 44 70
e 45 46
e 45 47
e 45 48
e 45 49
e 45 50
e 45 52
e 45 53
e 45 56
e 45 57
e 45 58
e 45 59
e 45 60
e 45 62
e 45 63
e 45 66
e 45 67
e 45 68
e 45 69
e 45 70
e 46 51
e 46 54
e 46 55
e 46 57
e 46 58
e 46 59
e 46 60
e 46 61
e 46 62
e 46 63
e 46 64
e 46 65
e 46 68
e 46 69
e 46 70
e 47 50
e 47 53
e 47 55
e 47 56
e 47 58
e 47 59
e 47 60
e 47 61
e 47 62
e 47 63
e 47 64
e 47 65
e 47 67
e 47 69
e 47 70
e 48 49
e 48 52
e 48 55
e 48 56
e 48 57
e 48 59
e 48 60
e 48 61
e 48 62
e 48 63
e 48 64
e 48 65
e 48 66
e 48 69
e 48 70
e 49 53
e 49 54
e 49 56
e 49 57
e 49 58
e 49 60
e 49 61
e 49 62
e 49 63
e 49 64
e 49 65
e 49 67
e 49 68
e 49 70
e 50 52
e 50 54
e 50 56
e 50 57
e 50 58
e 50 59
e 50 61
e 50 62
e 50 63
e 50 64
e 50 65
e 50 66
e 50 68
e 50 70
e 51 52
e 51 53
e 51 56
e 51 57
e 51 58
e 51 59
e 51 60
e 51 62
e 51 63
e 51 64
e 51 65
e 51 66
e 51 67
e 51 70
e 52 56
e 52 57
e 52 58
e 52 59
e 52 60
e 52 61
e 52 63
e 52 64
e 52 65
e 52 67
e 52 68
e 52 69
e 53 56
e 53 57
e 53 58
e 53 59
e 53 60
e 53 61
e 53 62
e 53 64
e 53 65
e 53 66
e 53 68
e 53 69
e 54 56
e 54 57
e 54 58
e 54 59
e 54 60
e 54 61
e 54 62
e 54 63
e 54 65
e 54 66
e 54 67
e 54 69
e 55 56
e 55 57
e 55 58
e 55 59
e 55 60
e 55 61
e 55 62
e 55 63
e 55 64
e 55 66
e 55 67
e 55 68
e 56 61
e 56 64
e 56 65
e 56 68
e 56 69
e 56 70
e 57 60
e 57 63
e 57 65
e 57 67
e 57 69
e 57 70
e 58 59
e 58 62
e 58 65
e 58 66
e 58 69
e 58 70
e 59 63
e 59 64
e 59 67
e 59 68
e 59 70
e 60 62
e 60 64
e 60 66
e 60 68
e 60 70
e 61 62
e 61 63
e 61 66
e 61 67
e 61 70
e 62 67
e 62 68
e 62 69
e 63 66
e 63 68
e 63 69
e 64 66
e 64 67
e 64 69
e 65 66
e 65 67
e 65 68
